250 250 184155
120 135 86 103 66 135 91 131 71 153 87 168 118 140 132 152 135 121 68 155
133 186 75 73 85 97 175 176 176 72 148 107 90 109 159 93 68 158 94 76
15960 25110 6450 7519 5610 13095 15925 23056 12496 11016 12876 17976 10620 15260 20988 14136 9180 19118 6392 11780
20169 32857 5875 9438 5724 14566 14448 22148 12105 10224 13665 19776 11513 16872 23095 12698 11268 22154 6799 11620
